*HEADING
kupfer-base
*NODE
1, 0, 0, 0
2, 4.436101892427629, 0, 0
3, 0, 4.436101892427629, 0
4, 4.436101892427629, 4.436101892427629, 0
5, 0, 0, 25
6, 4.436101892427629, 0, 25
7, 0, 4.436101892427629, 25
8, 4.436101892427629, 4.436101892427629, 25
*ELEMENT, TYPE=C3D8, ELSET=ALL
1, 1, 2, 4, 3, 5, 6, 8, 7
*MATERIAL, NAME=CONTINUUM
*ELASTIC
56200.0, 0.3
*PLASTIC
139.02982685893227, 0.0
277.75601849409054, 0.016
*SOLID SECTION, ELSET=ALL, MATERIAL=CONTINUUM
*NSET, NSET=BOTTOM
1, 2, 3, 4
*NSET, NSET=TOP
5, 6, 7, 8
*BOUNDARY
BOTTOM, 3, 3, 0.0
1, 1, 2, 0.0
2, 2, 2, 0.0
*STEP, NAME=TENSION, NLGEOM=NO, INC=1000
*STATIC
0.8, 32.0, 3.2e-07, 0.8
*BOUNDARY
TOP, 3, 3, 0.2
*OUTPUT, FIELD, FREQUENCY=1
*ELEMENT OUTPUT
S, E
*NODE OUTPUT
U, RF
*END STEP
